NAME : amz2410.92103_75603.tour
COMMENT : Cost = 92103_75603
COMMENT : Found by LKH-AMZ [Keld Helsgaun] Sun May 11 13:54:54 2025
COMMENT : TW viol.: 0 #: 0
TYPE : TOUR
DIMENSION : 100
TOUR_SECTION
29
5
58
13
38
80
3
56
7
42
94
40
82
22
41
54
23
35
95
60
48
19
57
18
49
36
26
33
71
73
37
98
92
72
78
87
59
69
84
74
34
4
8
96
97
44
6
93
85
64
90
55
43
12
21
16
47
51
68
2
10
70
66
11
88
86
91
76
52
15
46
9
53
17
77
65
25
100
63
14
83
45
99
20
61
79
30
50
67
39
27
32
1
62
89
75
24
81
28
31
-1
EOF
